c   #vars: 84   #clauses: 368   #literals: 1018
c 
p cnf 84 368
12 57 58 -69 0
-2 -3 0
-4 -5 0
-6 -7 0
-8 -9 0
-10 -11 0
15 -46 65 66 0
-13 -14 0
16 63 64 -80 0
19 54 55 -74 0
-17 -18 0
-19 24 25 56 0
-20 -21 0
-22 -23 0
-26 -27 0
-28 -29 0
-30 -31 0
-32 -33 0
-34 -35 0
13 14 54 55 0
13 14 67 68 0
-36 -37 0
-40 -41 0
-42 -43 0
-44 -45 0
-46 -47 0
-48 -49 0
-50 -51 0
28 29 50 51 0
-52 -53 0
-54 -55 0
-13 59 78 79 0
-57 -58 0
24 25 -26 62 0
6 7 44 45 0
-60 -61 0
-44 48 49 73 0
-63 -64 0
-65 -66 0
-67 -68 0
-69 -70 0
-71 -72 0
6 7 -50 82 0
-74 -75 0
-76 -77 0
-78 -79 0
-80 -81 0
26 27 83 84 0
22 23 63 64 0
20 21 71 72 0
-83 -84 0
52 53 80 81 0
12 -46 57 58 0
-1 -41 0
36 37 69 70 0
12 46 47 -69 0
-1 -61 0
6 7 -24 62 0
12 46 47 -57 0
-1 -64 0
19 -56 74 75 0
-2 -42 0
-3 -43 0
28 29 80 81 0
-2 -50 0
-3 -51 0
50 51 74 75 0
-2 -63 0
-3 -64 0
54 55 69 70 0
-2 -65 0
-3 -66 0
2 3 63 64 0
-24 -25 0
-4 -38 0
-5 -39 0
13 14 30 31 0
-4 -56 0
-6 59 78 79 0
44 45 -48 73 0
-4 -57 0
-5 -58 0
-4 -83 0
-5 -84 0
10 11 40 41 0
-6 -36 0
-7 -37 0
4 5 57 58 0
-6 -44 0
-7 -45 0
20 21 57 58 0
-6 -52 0
-7 -53 0
28 29 42 43 0
-6 24 25 62 0
-7 -59 0
44 45 80 81 0
-30 48 49 73 0
-7 -62 0
40 41 71 72 0
-7 -82 0
8 9 50 51 0
-8 -50 0
-9 -51 0
-8 -52 0
-9 -53 0
-8 -69 0
-9 -70 0
36 37 63 64 0
-8 -76 0
-9 -77 0
-10 -38 0
-11 -39 0
22 23 78 79 0
-10 -40 0
-11 -41 0
-10 -48 0
-11 -49 0
2 3 50 51 0
-10 -52 0
-11 -53 0
28 29 83 84 0
15 -32 65 66 0
-12 -47 0
17 18 71 72 0
15 46 47 -65 0
-12 -58 0
15 -32 46 47 0
-12 -70 0
-13 -30 0
-14 -31 0
24 25 34 35 0
-13 -32 0
-14 -33 0
2 3 65 66 0
-13 -54 0
-14 -55 0
15 32 33 -46 0
-24 26 27 62 0
-14 -59 0
48 49 74 75 0
-13 -67 0
-14 -68 0
54 55 76 77 0
-13 -74 0
-14 -75 0
-13 -80 0
-14 -81 0
52 53 83 84 0
16 63 64 -76 0
-15 -33 0
16 76 77 -80 0
-15 -47 0
32 33 71 72 0
16 -63 76 77 0
-15 -66 0
19 -25 56 -74 0
19 54 55 -56 0
-16 -64 0
20 21 32 33 0
-6 13 14 59 0
-16 -77 0
4 5 38 39 0
13 14 59 -78 0
-16 -81 0
-17 -42 0
-18 -43 0
-17 -67 0
-18 -68 0
48 49 78 79 0
-17 -71 0
-18 -72 0
13 14 80 81 0
-17 -83 0
-18 -84 0
-5 19 56 -74 0
-5 24 25 56 0
-19 -55 0
36 37 83 84 0
4 5 -25 56 0
6 7 59 -78 0
10 11 38 39 0
4 5 -19 56 0
-19 -75 0
34 35 65 66 0
-20 -32 0
-21 -33 0
22 23 57 58 0
-20 -38 0
-21 -39 0
22 23 42 43 0
-20 -50 0
-21 -51 0
44 45 60 61 0
-20 -57 0
-21 -58 0
22 23 65 66 0
-20 -69 0
-21 -70 0
40 41 83 84 0
-20 -71 0
-21 -72 0
44 45 76 77 0
-22 -42 0
-23 -43 0
46 47 60 61 0
-22 -57 0
-23 -58 0
20 21 38 39 0
-22 -63 0
-23 -64 0
17 18 67 68 0
-22 -65 0
-23 -66 0
38 39 60 61 0
-22 -78 0
-23 -79 0
24 25 38 39 0
-22 -80 0
-23 -81 0
-24 -34 0
-25 -35 0
32 33 67 68 0
-24 -38 0
-25 -39 0
28 29 78 79 0
-24 -56 0
6 7 -13 59 0
1 -40 60 61 0
30 31 -48 73 0
-25 -62 0
8 9 69 70 0
-30 44 45 73 0
1 40 41 -63 0
26 27 69 70 0
30 31 -44 73 0
-27 -62 0
-26 -69 0
-27 -70 0
6 7 -26 62 0
-26 -71 0
-27 -72 0
30 31 71 72 0
-26 -83 0
-27 -84 0
-6 50 51 82 0
-28 -42 0
-29 -43 0
28 29 52 53 0
-28 -50 0
-29 -51 0
6 7 52 53 0
-28 -52 0
-29 -53 0
13 14 32 33 0
-28 -78 0
-29 -79 0
10 11 52 53 0
-28 -80 0
-29 -81 0
8 9 52 53 0
-28 -83 0
-29 -84 0
22 23 80 81 0
-30 -63 0
-31 -64 0
26 27 71 72 0
-30 -71 0
-31 -72 0
52 53 69 70 0
6 7 -34 82 0
-31 -73 0
-5 19 -54 56 0
-32 -67 0
-33 -68 0
-32 -71 0
-33 -72 0
12 -46 69 70 0
-34 -65 0
-35 -66 0
42 43 67 68 0
-34 -80 0
-35 -81 0
20 21 69 70 0
-35 -82 0
17 18 42 43 0
-34 -83 0
-35 -84 0
1 60 61 -63 0
-38 -39 0
-36 -63 0
-37 -64 0
-36 -69 0
-37 -70 0
1 -40 63 64 0
-36 -83 0
-37 -84 0
6 7 36 37 0
-38 -60 0
-39 -61 0
16 -63 80 81 0
57 58 80 81 0
1 40 41 -60 0
-40 -71 0
-41 -72 0
-40 -83 0
-41 -84 0
46 47 69 70 0
-42 -67 0
-43 -68 0
15 32 33 -65 0
-44 -60 0
-45 -61 0
2 3 42 43 0
34 35 -50 82 0
-45 -73 0
1 -60 63 64 0
-44 -76 0
-45 -77 0
4 5 83 84 0
-44 -80 0
-45 -81 0
10 11 48 49 0
-46 -60 0
-47 -61 0
-34 50 51 82 0
-46 -69 0
-47 -70 0
34 35 80 81 0
-6 34 35 82 0
-49 -73 0
19 -25 -54 56 0
-48 -74 0
-49 -75 0
30 31 63 64 0
-48 -78 0
-49 -79 0
-50 -60 0
-51 -61 0
8 9 76 77 0
-50 -74 0
-51 -75 0
13 14 74 75 0
-50 -78 0
-51 -79 0
34 35 83 84 0
-51 -82 0
50 51 78 79 0
-52 -69 0
-53 -70 0
20 21 50 51 0
-52 -80 0
-53 -81 0
50 51 60 61 0
-52 -83 0
-53 -84 0
16 -76 80 81 0
-54 -69 0
-55 -70 0
17 18 83 84 0
-54 -76 0
-55 -77 0
12 -57 69 70 0
-57 -80 0
-58 -81 0
19 -54 74 75 0
-6 26 27 62 0
-59 -79 0
